Cost: 996
0-31-48-3-6-4-7-8-36-9-11-38-10-51-14-16-17-55-0
0-34-1-26-25-24-20-40-41-21-54-27-49-45-44-28-29-0
Cost: 996
0-1-26-25-20-40-41-21-50-23-54-27-45-44-28-29-0
0-31-48-3-6-4-7-8-36-9-11-38-10-14-16-17-52-55-33-0
Cost: 996
0-31-48-3-6-4-7-8-36-9-11-38-10-51-14-16-17-55-0
0-34-1-26-25-24-20-40-41-21-54-27-49-45-44-28-29-0
Cost: 996
0-31-48-3-6-4-7-8-36-9-11-38-10-14-15-17-55-0
0-34-1-52-26-25-24-20-40-41-21-50-54-27-45-44-28-29-0
Cost: 996
0-31-48-3-6-4-7-8-36-9-11-38-10-14-15-17-55-0
0-34-1-52-26-25-20-40-41-21-23-54-27-49-45-44-28-29-0
Cost: 996
0-31-48-3-6-4-7-8-36-9-11-38-10-51-14-15-17-55-33-0
0-1-26-25-20-40-41-21-23-54-27-49-45-44-28-29-0
Cost: 996
0-31-48-3-6-4-7-8-36-9-11-38-10-14-15-17-55-33-0
0-1-52-26-25-24-20-40-41-21-50-54-27-45-44-28-29-0
Cost: 996
0-1-52-26-25-24-20-40-41-21-50-54-27-45-44-28-29-0
0-31-48-3-6-4-7-8-36-9-11-38-10-14-16-17-55-33-0
Cost: 996
0-1-52-26-25-24-20-40-41-21-54-27-49-45-44-28-29-0
0-31-48-3-6-4-7-8-36-9-11-38-10-14-16-17-55-33-0
Cost: 996
0-31-48-3-6-4-7-8-36-9-11-38-10-51-14-16-17-55-0
0-34-1-26-25-24-20-40-41-21-50-54-27-45-44-28-29-0
Cost: 996
0-34-1-52-26-25-24-20-40-41-21-54-27-49-45-44-28-29-0
0-31-48-3-6-4-7-8-36-9-11-38-10-14-16-17-55-0
Cost: 996
0-31-48-3-6-4-7-8-36-9-11-38-10-51-14-15-17-55-33-0
0-2-26-25-24-20-40-41-21-50-54-27-45-44-28-29-0
Cost: 996
0-31-48-3-6-4-7-8-36-9-11-38-10-51-14-16-17-55-33-0
0-2-26-25-24-20-40-41-21-50-54-27-45-44-28-29-0
Cost: 996
0-2-26-25-24-20-40-41-21-50-54-27-45-44-28-29-0
0-31-48-3-6-4-7-8-36-9-11-38-10-51-14-16-17-55-33-0
Cost: 996
0-31-48-3-6-4-7-8-36-9-11-38-10-51-14-15-17-55-33-0
0-2-26-25-20-40-41-21-23-54-27-49-45-44-28-29-0
Cost: 996
0-31-48-3-6-4-7-8-36-9-11-38-10-51-14-15-17-55-33-0
0-2-26-25-24-20-40-41-21-50-54-27-45-44-28-29-0
Cost: 996
0-31-48-3-6-4-7-8-36-9-11-38-10-51-14-15-17-55-33-0
0-2-26-25-24-20-40-41-21-50-54-27-45-44-28-29-0
Cost: 996
0-31-48-3-6-4-7-8-36-9-11-38-10-14-16-17-52-55-0
0-34-1-26-25-24-20-40-41-21-50-54-27-45-44-28-29-0
Cost: 996
0-31-48-3-6-4-7-8-36-9-11-38-10-51-14-15-17-55-33-0
0-2-26-25-24-20-40-41-21-50-54-27-45-44-28-29-0
Cost: 996
0-2-26-25-24-20-40-41-21-50-54-27-45-44-28-29-0
0-31-48-3-6-4-7-8-36-9-11-38-10-51-14-15-17-55-33-0
Cost: 996
0-31-48-3-6-4-7-8-36-9-11-38-10-14-16-17-52-55-33-0
0-2-26-25-20-40-41-21-23-54-27-49-45-44-28-29-0
Cost: 996
0-1-26-25-20-40-41-21-23-54-27-49-45-44-28-29-0
0-31-48-3-6-4-7-8-36-9-11-38-10-14-16-17-52-55-33-0
Cost: 996
0-1-26-25-20-40-41-21-23-54-27-49-45-44-28-29-0
0-31-48-3-6-4-7-8-36-9-11-38-10-14-16-17-52-55-33-0
Cost: 996
0-31-48-3-6-4-7-8-36-9-11-38-10-14-15-17-55-0
0-34-1-52-26-25-20-40-41-21-23-54-27-49-45-44-28-29-0
Cost: 996
0-31-48-3-6-4-7-8-36-9-11-38-10-14-15-17-55-0
0-34-1-52-26-25-20-40-41-21-23-54-27-49-45-44-28-29-0
Cost: 996
0-1-26-25-20-40-41-21-23-54-27-49-45-44-28-29-0
0-31-48-3-6-4-7-8-36-9-11-38-10-14-15-17-52-55-33-0
Cost: 996
0-31-48-3-6-4-7-8-36-9-11-38-10-14-15-17-55-0
0-34-1-52-26-25-20-40-41-21-23-54-27-49-45-44-28-29-0
Cost: 996
0-31-48-3-6-4-7-8-36-9-11-38-10-14-16-17-52-55-33-0
0-2-26-25-20-40-41-21-23-54-27-49-45-44-28-29-0
Cost: 996
0-1-26-25-20-40-41-21-23-54-27-49-45-44-28-29-0
0-31-48-3-6-4-7-8-36-9-11-38-10-14-16-17-52-55-33-0
Cost: 996
0-1-26-25-20-40-41-21-23-54-27-49-45-44-28-29-0
0-31-48-3-6-4-7-8-36-9-11-38-10-14-16-17-52-55-33-0
Cost: 996
0-31-48-3-6-4-7-8-36-9-11-38-10-14-16-17-52-55-33-0
0-1-26-25-24-20-40-41-21-50-54-27-45-44-28-29-0
Cost: 996
0-31-48-3-6-4-7-8-36-9-11-38-10-14-15-17-55-33-0
0-1-52-26-25-20-40-41-21-23-54-27-49-45-44-28-29-0
Cost: 996
0-34-2-52-26-25-24-20-40-41-21-54-27-49-45-44-28-29-0
0-31-48-3-6-4-7-8-36-9-11-38-10-14-15-17-55-0
Cost: 996
0-34-2-52-26-25-20-40-41-21-23-54-27-49-45-44-28-29-0
0-31-48-3-6-4-7-8-36-9-11-38-10-14-15-17-55-0
Cost: 996
0-34-1-26-25-20-40-41-21-23-54-27-49-45-44-28-29-0
0-31-48-3-6-4-7-8-36-9-11-38-10-51-14-15-17-55-0
